p cnf 64 340
1 2 3 4  0
5 6 7 8  0
9 10 11 12  0
13 14 15 16  0
17 18 19 20  0
21 22 23 24  0
25 26 27 28  0
29 30 31 32  0
33 34 35 36  0
37 38 39 40  0
41 42 43 44  0
45 46 47 48  0
49 50 51 52  0
53 54 55 56  0
57 58 59 60  0
61 62 63 64  0
1 5 9 13 0
2 6 10 14 0
3 7 11 15 0
4 8 12 16 0
17 21 25 29 0
18 22 26 30 0
19 23 27 31 0
20 24 28 32 0
33 37 41 45 0
34 38 42 46 0
35 39 43 47 0
36 40 44 48 0
49 53 57 61 0
50 54 58 62 0
51 55 59 63 0
52 56 60 64 0
-1 -17 0
-1 -33 0
-1 -49 0
-17 -33 0
-17 -49 0
-33 -49 0
-2 -18 0
-2 -34 0
-2 -50 0
-18 -34 0
-18 -50 0
-34 -50 0
-3 -19 0
-3 -35 0
-3 -51 0
-19 -35 0
-19 -51 0
-35 -51 0
-4 -20 0
-4 -36 0
-4 -52 0
-20 -36 0
-20 -52 0
-36 -52 0
-5 -21 0
-5 -37 0
-5 -53 0
-21 -37 0
-21 -53 0
-37 -53 0
-6 -22 0
-6 -38 0
-6 -54 0
-22 -38 0
-22 -54 0
-38 -54 0
-7 -23 0
-7 -39 0
-7 -55 0
-23 -39 0
-23 -55 0
-39 -55 0
-8 -24 0
-8 -40 0
-8 -56 0
-24 -40 0
-24 -56 0
-40 -56 0
-9 -25 0
-9 -41 0
-9 -57 0
-25 -41 0
-25 -57 0
-41 -57 0
-10 -26 0
-10 -42 0
-10 -58 0
-26 -42 0
-26 -58 0
-42 -58 0
-11 -27 0
-11 -43 0
-11 -59 0
-27 -43 0
-27 -59 0
-43 -59 0
-12 -28 0
-12 -44 0
-12 -60 0
-28 -44 0
-28 -60 0
-44 -60 0
-13 -29 0
-13 -45 0
-13 -61 0
-29 -45 0
-29 -61 0
-45 -61 0
-14 -30 0
-14 -46 0
-14 -62 0
-30 -46 0
-30 -62 0
-46 -62 0
-15 -31 0
-15 -47 0
-15 -63 0
-31 -47 0
-31 -63 0
-47 -63 0
-16 -32 0
-16 -48 0
-16 -64 0
-32 -48 0
-32 -64 0
-48 -64 0
-2 -1 0
-3 -1 0
-4 -1 0
-3 -2 0
-4 -2 0
-4 -3 0
-6 -5 0
-7 -5 0
-8 -5 0
-7 -6 0
-8 -6 0
-8 -7 0
-10 -9 0
-11 -9 0
-12 -9 0
-11 -10 0
-12 -10 0
-12 -11 0
-14 -13 0
-15 -13 0
-16 -13 0
-15 -14 0
-16 -14 0
-16 -15 0
-18 -17 0
-19 -17 0
-20 -17 0
-19 -18 0
-20 -18 0
-20 -19 0
-22 -21 0
-23 -21 0
-24 -21 0
-23 -22 0
-24 -22 0
-24 -23 0
-26 -25 0
-27 -25 0
-28 -25 0
-27 -26 0
-28 -26 0
-28 -27 0
-30 -29 0
-31 -29 0
-32 -29 0
-31 -30 0
-32 -30 0
-32 -31 0
-34 -33 0
-35 -33 0
-36 -33 0
-35 -34 0
-36 -34 0
-36 -35 0
-38 -37 0
-39 -37 0
-40 -37 0
-39 -38 0
-40 -38 0
-40 -39 0
-42 -41 0
-43 -41 0
-44 -41 0
-43 -42 0
-44 -42 0
-44 -43 0
-46 -45 0
-47 -45 0
-48 -45 0
-47 -46 0
-48 -46 0
-48 -47 0
-50 -49 0
-51 -49 0
-52 -49 0
-51 -50 0
-52 -50 0
-52 -51 0
-54 -53 0
-55 -53 0
-56 -53 0
-55 -54 0
-56 -54 0
-56 -55 0
-58 -57 0
-59 -57 0
-60 -57 0
-59 -58 0
-60 -58 0
-60 -59 0
-62 -61 0
-63 -61 0
-64 -61 0
-63 -62 0
-64 -62 0
-64 -63 0
-5 -1 0
-9 -1 0
-13 -1 0
-9 -5 0
-13 -5 0
-13 -9 0
-6 -2 0
-10 -2 0
-14 -2 0
-10 -6 0
-14 -6 0
-14 -10 0
-7 -3 0
-11 -3 0
-15 -3 0
-11 -7 0
-15 -7 0
-15 -11 0
-8 -4 0
-12 -4 0
-16 -4 0
-12 -8 0
-16 -8 0
-16 -12 0
-21 -17 0
-25 -17 0
-29 -17 0
-25 -21 0
-29 -21 0
-29 -25 0
-22 -18 0
-26 -18 0
-30 -18 0
-26 -22 0
-30 -22 0
-30 -26 0
-23 -19 0
-27 -19 0
-31 -19 0
-27 -23 0
-31 -23 0
-31 -27 0
-24 -20 0
-28 -20 0
-32 -20 0
-28 -24 0
-32 -24 0
-32 -28 0
-37 -33 0
-41 -33 0
-45 -33 0
-41 -37 0
-45 -37 0
-45 -41 0
-38 -34 0
-42 -34 0
-46 -34 0
-42 -38 0
-46 -38 0
-46 -42 0
-39 -35 0
-43 -35 0
-47 -35 0
-43 -39 0
-47 -39 0
-47 -43 0
-40 -36 0
-44 -36 0
-48 -36 0
-44 -40 0
-48 -40 0
-48 -44 0
-53 -49 0
-57 -49 0
-61 -49 0
-57 -53 0
-61 -53 0
-61 -57 0
-54 -50 0
-58 -50 0
-62 -50 0
-58 -54 0
-62 -54 0
-62 -58 0
-55 -51 0
-59 -51 0
-63 -51 0
-59 -55 0
-63 -55 0
-63 -59 0
-56 -52 0
-60 -52 0
-64 -52 0
-60 -56 0
-64 -56 0
-64 -60 0
3 0
21 0
-5 -22 0
-5 -38 0
-5 -54 0
-21 -38 0
-21 -54 0
-37 -54 0
-23 -11 0
-39 -11 0
-55 -11 0
-39 -27 0
-55 -27 0
-55 -43 0
-15 -32 0
-15 -48 0
-15 -64 0
-31 -48 0
-31 -64 0
-47 -64 0
